33D32945 STP File, STP Format Version 1.0

SECTION Comments
Name "carioca_3_11_04"
Creator "Marcia Fampa, Jon Lee & Wendel Melo"
Problem "Euclidean Steiner Tree Problem"
Remark "Converted automatically"
END

SECTION Graph
Nodes 11
END

SECTION Coordinates
DDD 1 0.12116340000000 0.44253919000000 0.68231457000000 
DDD 2 0.16402166000000 0.57849644000000 0.37349151000000 
DDD 3 0.28738026000000 0.56069300000000 0.98925105000000 
DDD 4 0.35511613000000 0.70037353000000 0.05247208000000 
DDD 5 0.73267633000000 0.78989322000000 0.76602841000000 
DDD 6 0.47654799000000 0.49614613000000 0.86513346000000 
DDD 7 0.18257035000000 0.39993512000000 0.14020776000000 
DDD 8 0.26367334000000 0.03266354000000 0.31276625000000 
DDD 9 0.38804284000000 0.68341946000000 0.54342995000000 
DDD 10 0.54803567000000 0.61675573000000 0.30394070000000 
DDD 11 0.81339528000000 0.11909623000000 0.83399921000000 
END

EOF
